unsat
(:cnf-encoding-aux-vars   3
 :eliminated-applications 3
 :eliminated-vars         29
 :max-memory              18.21
 :memory                  18.00
 :nlsat-conflicts         12
 :nlsat-decisions         9
 :nlsat-learned-added     11
 :nlsat-propagations      44
 :nlsat-stages            7
 :num-allocs              8780
 :rlimit-count            11500
 :time                    0.00
 :total-time              0.01)
